mixintcount/benchmarks/random_v2l/5_5_501.smt2
(set-logic QF_LIA)
(set-info :ran/ran2.smt2)
(set-info :smt-lib-version 2.0)
(declare-fun x1 () Int)
(declare-fun x2 () Int)
(declare-fun x3 () Int)
(declare-fun x4 () Int)
(declare-fun x5 () Int)
(assert (<= (+ (* (- 4) x1) (* 4 x2) (* 6 x3) (* 6 x4) (* (- 8) x5) ) 392))
(assert (<= (+ (* (- 5) x1) (* 1 x2) (* 2 x3) (* (- 4) x4) (* 7 x5) ) 304))
(assert (<= (+ (* 8 x1) (* 2 x2) (* 5 x3) (* 10 x4) (* (- 1) x5) ) 47))
(assert (<= (+ (* (- 7) x1) (* (- 10) x2) (* (- 4) x3) (* 8 x4) (* 6 x5) ) (- 407)))
(assert (<= (+ (* (- 4) x1) (* (- 5) x2) (* 7 x3) (* (- 1) x4) (* (- 1) x5) ) (- 233)))
(assert (<= (+ (* (- 5) x1) (* 3 x2) (* 3 x3) (* (- 10) x4) (* (- 4) x5) ) (- 253)))
(assert (<= (+ (* (- 7) x1) (* 2 x2) (* (- 7) x3) (* 5 x4) (* 8 x5) ) 165))
(assert (<= (+ (* (- 3) x1) (* 5 x2) (* (- 1) x3) (* (- 10) x4) (* 3 x5) ) 1))
(assert (<= (+ (* 0 x1) (* 4 x2) (* 7 x3) (* 6 x4) (* (- 1) x5) ) 332))
(assert (<= (+ (* 7 x1) (* 3 x2) (* 5 x3) (* 4 x4) (* (- 9) x5) ) 178))
(assert (<= (+ (* 1 x1) (* 0 x2) (* 0 x3) (* 0 x4) (* 0 x5) ) 501))
(assert (<= (+ (* (- 1) x1) (* 0 x2) (* 0 x3) (* 0 x4) (* 0 x5) ) 501))
(assert (<= (+ (* 0 x1) (* 1 x2) (* 0 x3) (* 0 x4) (* 0 x5) ) 501))
(assert (<= (+ (* 0 x1) (* (- 1) x2) (* 0 x3) (* 0 x4) (* 0 x5) ) 501))
(assert (<= (+ (* 0 x1) (* 0 x2) (* 1 x3) (* 0 x4) (* 0 x5) ) 501))
(assert (<= (+ (* 0 x1) (* 0 x2) (* (- 1) x3) (* 0 x4) (* 0 x5) ) 501))
(assert (<= (+ (* 0 x1) (* 0 x2) (* 0 x3) (* 1 x4) (* 0 x5) ) 501))
(assert (<= (+ (* 0 x1) (* 0 x2) (* 0 x3) (* (- 1) x4) (* 0 x5) ) 501))
(assert (<= (+ (* 0 x1) (* 0 x2) (* 0 x3) (* 0 x4) (* 1 x5) ) 501))
(assert (<= (+ (* 0 x1) (* 0 x2) (* 0 x3) (* 0 x4) (* (- 1) x5) ) 501))
