mixintcount/benchmarks/random_v2l/5_5_501.in
20 7
#	x1	x2	x3	x4	x5;		0 = Real; 1 = Integer
	1	1	1	1	1
1	-4	4	6	6	-8	392
1	-5	1	2	-4	7	304
1	8	2	5	10	-1	47
1	-7	-10	-4	8	6	-407
1	-4	-5	7	-1	-1	-233
1	-5	3	3	-10	-4	-253
1	-7	2	-7	5	8	165
1	-3	5	-1	-10	3	1
1	0	4	7	6	-1	332
1	7	3	5	4	-9	178
1	1	0	0	0	0	501
1	-1	0	0	0	0	501
1	0	1	0	0	0	501
1	0	-1	0	0	0	501
1	0	0	1	0	0	501
1	0	0	-1	0	0	501
1	0	0	0	1	0	501
1	0	0	0	-1	0	501
1	0	0	0	0	1	501
1	0	0	0	0	-1	501
